4 
5  50 
6  05 20 39 46 54 
7  01 09 16 24 31 39 46 54 
8  01 09 16 24 31 39 46 54 
9  01 09 16 31 46 
10  01 16 31 46 
11  01 16 31 46 
12  01 16 31 46 
13  02 17 32 47 
14  02 17 32 47 
15  02 09 17 25 32 40 47 55 
16  02 10 17 25 32 40 47 55 
17  02 10 17 25 32 40 47 55 
18  02 10 17 25 32 39 47 
19  02 16 31 46 
20  01 16 31 46 58 
21  13 28 43 58 
22  13 28 41 56 
23  12 27 
0 
